c description: Random 3-CNF over 22 variables and 94 clauses
c generator: CNFgen (0.9.2)
c copyright: (C) 2012-2022 Massimo Lauria <massimo.lauria@uniroma1.it>
c url: https://massimolauria.net/cnfgen
c command line: cnfgen --output CNF_4.28/22_bit_94_662.cnf randkcnf 3 22 94
c
p cnf 22 94
-11 -21 -22 0
10 15 18 0
-9 13 -18 0
-5 12 22 0
-1 7 -19 0
18 19 -21 0
-12 -16 -18 0
4 7 -21 0
11 -12 -19 0
2 8 -22 0
-12 -18 -20 0
-13 16 17 0
10 15 21 0
15 17 -18 0
1 7 -15 0
5 -17 -20 0
-4 -10 -12 0
-7 19 -21 0
3 10 18 0
-6 10 18 0
-1 -13 19 0
-10 15 17 0
2 -15 -19 0
-8 13 21 0
2 4 -20 0
-8 -11 15 0
-5 10 17 0
1 2 22 0
-1 3 21 0
13 -16 -17 0
-9 14 -21 0
-1 7 -20 0
-4 8 -12 0
-3 4 17 0
6 7 8 0
-2 20 -21 0
-11 -15 18 0
3 5 -20 0
-1 16 -21 0
10 16 21 0
1 3 16 0
13 15 -17 0
14 -16 -19 0
1 2 9 0
6 -14 20 0
-1 7 21 0
3 -15 -22 0
-2 -6 22 0
7 12 22 0
-16 -17 -19 0
7 -17 20 0
3 -9 19 0
-1 -19 -21 0
2 -6 -9 0
-2 12 -18 0
7 14 19 0
2 -13 -21 0
-6 15 18 0
5 11 18 0
4 13 -17 0
4 -5 10 0
-6 14 20 0
5 -9 19 0
2 -3 -21 0
1 5 12 0
11 12 -17 0
8 -11 14 0
-6 7 -9 0
-1 12 -17 0
-3 8 -14 0
-3 7 -13 0
10 -13 17 0
6 17 20 0
6 -17 -22 0
-19 -20 -22 0
13 15 -22 0
-4 15 -16 0
1 -14 19 0
-2 7 -11 0
-6 18 -20 0
16 19 22 0
6 11 13 0
5 11 -13 0
14 18 -20 0
-6 -10 19 0
6 15 -22 0
-6 -17 -19 0
11 -17 22 0
-2 -19 21 0
-3 -20 22 0
6 13 15 0
-1 6 -16 0
4 17 -22 0
18 -20 -22 0
